c turning on binary mode checking
c parsing input formula with 259840 variables and 1039934 clauses
c finished parsing, read 3377084 bytes from proof file
c detected empty clause; start verification via backward checking
c 11152 of 1039934 clauses in core                            
c 3648 of 128085 lemmas in core using 129773 resolution steps
c 0 RAT lemmas in core; 661 redundant literals in core lemmas
s VERIFIED
c verification time: 1.628 seconds
